Route #1: 1 52 18 40 22 26 20 53 25 62 43 33 1
Route #2: 1 44 50 6 46 61 31 36 1
Route #3: 1 63 8 12 64 55 49 58 24 1
Route #4: 1 47 65 7 27 32 35 48 1
Route #5: 1 28 16 23 10 15 4 5 1
Route #6: 1 56 30 19 34 2 13 14 60 1
Route #7: 1 38 37 51 17 3 39 1
Route #8: 1 29 45 57 54 1
Route #9: 1 59 21 41 11 9 1
cost 1426.806160550435
